; benchmark generated from python API
(set-info :status unknown)
(declare-fun x_day () Int)
(declare-fun x_month () Int)
(declare-fun x_year () Int)
(declare-fun x_epoch () Int)
(declare-fun x_shift_period_79901_day () Int)
(declare-fun x_shift_period_79901_month () Int)
(declare-fun x_shift_period_79901_year () Int)
(declare-fun x_shift_period_79901_epoch () Int)
(assert
 (let (($x568 (> x_month 2)))
 (let (($x672 (= (mod x_year 4) 0)))
 (let (($x356 (= (mod x_year 100) 0)))
 (let (($x938 (= (mod x_year 400) 0)))
 (let (($x1010 (ite $x938 true (ite $x356 false $x672))))
 (let (($x652 (= x_month 9)))
 (let ((?x567 (ite $x652 243 (ite (= x_month 10) 273 (ite (= x_month 11) 304 334)))))
 (let (($x395 (= x_month 6)))
 (let ((?x112 (ite $x395 151 (ite (= x_month 7) 181 (ite (= x_month 8) 212 ?x567)))))
 (let (($x788 (= x_month 4)))
 (let (($x231 (= x_month 3)))
 (let (($x620 (= x_month 2)))
 (let ((?x315 (ite $x620 31 (ite $x231 59 (ite $x788 90 (ite (= x_month 5) 120 ?x112))))))
 (let (($x503 (= x_month 1)))
 (let ((?x943 (ite $x503 0 ?x315)))
 (let ((?x1268 (- (+ (* 365 (- x_year 1)) (div (- x_year 1) 4)) (div (- x_year 1) 100))))
 (let ((?x328 (+ (+ ?x1268 (div (- x_year 1) 400)) (+ ?x943 (ite (and $x1010 $x568) 1 0)))))
 (let (($x182 (<= x_year 2400)))
 (let (($x1406 (>= x_year 1600)))
 (let ((?x564 (ite (or $x788 $x395 $x652 (= x_month 11)) 30 31)))
 (let ((?x889 (ite $x620 (ite $x1010 29 28) ?x564)))
 (let (($x1426 (>= x_day 1)))
 (let (($x150 (<= x_month 12)))
 (let (($x1627 (>= x_month 1)))
 (and $x1627 $x150 $x1426 (<= x_day ?x889) $x1406 $x182 (= x_epoch (+ ?x328 (- x_day 1)))))))))))))))))))))))))))))
(assert
 (let (($x620 (= x_month 2)))
 (let (($x606 (= x_year 2020)))
 (let (($x2796 (and $x606 $x620 (>= x_day 28))))
 (let (($x189 (> x_year 2020)))
 (or $x189 (and $x606 (> x_month 2)) $x2796))))))
(assert
 (let (($x231 (= x_month 3)))
 (let (($x606 (= x_year 2020)))
 (let (($x3293 (and $x606 $x231 (<= x_day 1))))
 (let (($x2350 (< x_year 2020)))
 (or $x2350 (and $x606 (< x_month 3)) $x3293))))))
(assert
 (let (($x3443 (= (mod x_shift_period_79901_year 4) 0)))
 (let (($x684 (= (mod x_shift_period_79901_year 100) 0)))
 (let (($x1902 (= (mod x_shift_period_79901_year 400) 0)))
 (let (($x5330 (ite $x1902 true (ite $x684 false $x3443))))
 (let ((?x3043 (ite (= x_shift_period_79901_month 10) 273 (ite (= x_shift_period_79901_month 11) 304 334))))
 (let (($x1926 (= x_shift_period_79901_month 9)))
 (let ((?x2748 (ite (= x_shift_period_79901_month 7) 181 (ite (= x_shift_period_79901_month 8) 212 (ite $x1926 243 ?x3043)))))
 (let (($x4634 (= x_shift_period_79901_month 6)))
 (let (($x2284 (= x_shift_period_79901_month 4)))
 (let ((?x1851 (ite $x2284 90 (ite (= x_shift_period_79901_month 5) 120 (ite $x4634 151 ?x2748)))))
 (let (($x4891 (= x_shift_period_79901_month 3)))
 (let (($x3929 (= x_shift_period_79901_month 2)))
 (let ((?x5465 (ite (= x_shift_period_79901_month 1) 0 (ite $x3929 31 (ite $x4891 59 ?x1851)))))
 (let ((?x1193 (+ ?x5465 (ite (and $x5330 (> x_shift_period_79901_month 2)) 1 0))))
 (let ((?x2045 (+ (* 365 (- x_shift_period_79901_year 1)) (div (- x_shift_period_79901_year 1) 4))))
 (let ((?x3951 (+ (- ?x2045 (div (- x_shift_period_79901_year 1) 100)) (div (- x_shift_period_79901_year 1) 400))))
 (let (($x1384 (= x_shift_period_79901_epoch (+ (+ ?x3951 ?x1193) (- x_shift_period_79901_day 1)))))
 (let (($x3908 (<= x_shift_period_79901_year 2400)))
 (let (($x3832 (>= x_shift_period_79901_year 1600)))
 (let ((?x4882 (ite (or $x2284 $x4634 $x1926 (= x_shift_period_79901_month 11)) 30 31)))
 (let (($x3393 (>= x_shift_period_79901_day 1)))
 (let (($x2553 (<= x_shift_period_79901_month 12)))
 (let (($x458 (>= x_shift_period_79901_month 1)))
 (and $x458 $x2553 $x3393 (<= x_shift_period_79901_day (ite $x3929 (ite $x5330 29 28) ?x4882)) $x3832 $x3908 $x1384)))))))))))))))))))))))))
(assert
 (let ((?x1625 (+ (mod (+ (+ (* 12 x_year) (- x_month 1)) 0) 12) 1)))
 (let (($x2751 (= ?x1625 11)))
 (let (($x2727 (= ?x1625 9)))
 (let (($x2718 (= ?x1625 6)))
 (let (($x2716 (= ?x1625 4)))
 (let ((?x1306 (* 12 x_year)))
 (let ((?x2663 (+ ?x1306 (- x_month 1))))
 (let ((?x2752 (+ ?x2663 0)))
 (let ((?x918 (div ?x2752 12)))
 (let (($x2214 (ite (= (mod ?x918 400) 0) true (ite (= (mod ?x918 100) 0) false (= (mod ?x918 4) 0)))))
 (let (($x2530 (= ?x1625 2)))
 (let ((?x2916 (ite $x2530 (ite $x2214 29 28) (ite (or $x2716 $x2718 $x2727 $x2751) 30 31))))
 (let ((?x1273 (ite (<= x_day ?x2916) x_day ?x2916)))
 (let (($x737 (= x_month 11)))
 (let (($x652 (= x_month 9)))
 (let (($x395 (= x_month 6)))
 (let (($x788 (= x_month 4)))
 (let ((?x564 (ite (or $x788 $x395 $x652 $x737) 30 31)))
 (let (($x672 (= (mod x_year 4) 0)))
 (let (($x356 (= (mod x_year 100) 0)))
 (let (($x938 (= (mod x_year 400) 0)))
 (let (($x1010 (ite $x938 true (ite $x356 false $x672))))
 (let (($x620 (= x_month 2)))
 (let ((?x889 (ite $x620 (ite $x1010 29 28) ?x564)))
 (let (($x242 (= x_day ?x889)))
 (let ((?x3596 (ite (= ?x1625 8) 212 (ite $x2727 243 (ite (= ?x1625 10) 273 (ite $x2751 304 334))))))
 (let ((?x1219 (ite (= ?x1625 5) 120 (ite $x2718 151 (ite (= ?x1625 7) 181 ?x3596)))))
 (let ((?x2017 (ite (= ?x1625 1) 0 (ite $x2530 31 (ite (= ?x1625 3) 59 (ite $x2716 90 ?x1219))))))
 (let ((?x3401 (- (+ (* 365 (- ?x918 1)) (div (- ?x918 1) 4)) (div (- ?x918 1) 100))))
 (let ((?x1906 (+ (+ ?x3401 (div (- ?x918 1) 400)) (+ ?x2017 (ite (and $x2214 (> ?x1625 2)) 1 0)))))
 (let ((?x2517 (+ ?x1906 (- (ite false (ite $x242 ?x2916 ?x1273) ?x1273) 1))))
 (= x_shift_period_79901_epoch (+ ?x2517 1))))))))))))))))))))))))))))))))))
(assert
 (let (($x3970 (= x_shift_period_79901_day 1)))
(let (($x4891 (= x_shift_period_79901_month 3)))
(let (($x653 (= x_shift_period_79901_year 2020)))
(and $x653 $x4891 $x3970)))))
(check-sat)
